100
16 13
25 27
25 23
12 16
1 9
7 2
19 20
16 23
6 0
16 22
8 11
9 27
20 2
13 2
25 7
12 29
18 12
27 29
16 13
22 1
3 9
29 21
7 14
14 8
0 5
27 50
50 27
28 49
49 28
31 6
6 31
0 19
19 0
11 21
21 11
30 6
6 30
39 1
1 39
41 25
25 41
43 17
17 43
45 12
12 45
47 4
4 47
49 5
5 49
51 23
23 51
53 14
14 53
55 15
15 55
57 7
7 57
59 33
33 59
12 61
61 12
63 17
17 63
10 10
11 11
50 50
40 40
39 39
51 6
6 51
72 9
9 72
74 21
21 74
76 6
6 76
78 19
19 78
80 1
1 80
82 11
11 82
84 9
9 84
86 30
30 86
88 50
50 88
90 21
21 90
92 93
93 92
66 94
94 66
96 69
69 96
98 0
0 99
25 75
75 25

